     Program PWSCF v.6.4 starts on 10Apr2019 at  0:51:17

     Waiting for input...
     Reading input from standard input

     Current dimensions of program PWSCF are:
     Max number of different atomic species (ntypx) = 10
     Max number of k-points (npk) =  40000
     Max angular momentum in pseudopotentials (lmaxx) =  3
               file Bi.pz-dn-rrkjus_psl.1.0.0.UPF: wavefunction(s)  5D renormalized
     Found symmetry operation: I + ( -0.3333  0.3333  0.3333)
     This is a supercell, fractional translations are disabled

     bravais-lattice index     =            0
     lattice parameter (alat)  =      10.6547  a.u.
     unit-cell volume          =    2614.6950 (a.u.)^3
     number of atoms/cell      =           30
     number of atomic types    =            4
     number of electrons       =       294.00
     number of Kohn-Sham states=          294
     kinetic-energy cutoff     =      40.0000  Ry
     charge density cutoff     =     320.0000  Ry
     convergence threshold     =      1.0E-06
     mixing beta               =       0.4000
     number of iterations used =            8  plain     mixing
     Exchange-correlation      =  SLA  PZ   NOGX NOGC ( 1  1  0  0 0 0)

     celldm(1)=  10.654661  celldm(2)=   0.000000  celldm(3)=   0.000000
     celldm(4)=   0.000000  celldm(5)=   0.000000  celldm(6)=   0.000000

     crystal axes: (cart. coord. in units of alat)
               a(1) = (   1.000000   0.000000  -0.000000 )
               a(2) = (  -0.500000   0.866025  -0.000000 )
               a(3) = (   0.000000   0.000000   2.496155 )

     reciprocal axes: (cart. coord. in units 2 pi/alat)
               b(1) = (  1.000000  0.577350 -0.000000 )
               b(2) = ( -0.000000  1.154701  0.000000 )
               b(3) = (  0.000000  0.000000  0.400616 )

     PseudoPot. # 1 for Bi read from file:
     /home/ngt/.burai/.pseudopot/Bi.pz-dn-rrkjus_psl.1.0.0.UPF
     MD5 check sum: 30ed9582656127c1bc49cf5897a59f42
     Pseudo is Ultrasoft + core correction, Zval = 15.0
     Generated using "atomic" code by A. Dal Corso v.6.2.2
     Using radial grid of 1283 points,  6 beta functions with:
                l(1) =   0
                l(2) =   0
                l(3) =   1
                l(4) =   1
                l(5) =   2
                l(6) =   2
     Q(r) pseudized with 0 coefficients

     PseudoPot. # 2 for O  read from file:
     /home/ngt/.burai/.pseudopot/o_lda_v1.2.uspp.F.UPF
     MD5 check sum: 194b818514d2a7dbb603bb78519a4f40
     Pseudo is Ultrasoft + core correction, Zval =  6.0
     Generated by new atomic code, or converted to UPF format
     Using radial grid of  737 points,  5 beta functions with:
                l(1) =   0
                l(2) =   0
                l(3) =   1
                l(4) =   1
                l(5) =   2
     Q(r) pseudized with  8 coefficients,  rinner =    0.900   0.900   0.900
                                                       0.900   0.900

     PseudoPot. # 3 for Fe read from file:
     /home/ngt/.burai/.pseudopot/fe_lda_v1.5.uspp.F.UPF
     MD5 check sum: 70aee299febfc78ac0df086b2000f8f7
     Pseudo is Ultrasoft + core correction, Zval = 16.0
     Generated by new atomic code, or converted to UPF format
     Using radial grid of  861 points,  6 beta functions with:
                l(1) =   0
                l(2) =   0
                l(3) =   1
                l(4) =   1
                l(5) =   2
                l(6) =   2
     Q(r) pseudized with  8 coefficients,  rinner =    1.000   1.000   1.000
                                                       1.000   1.000

     PseudoPot. # 4 for Fe read from file:
     /home/ngt/.burai/.pseudopot/fe_lda_v1.5.uspp.F.UPF
     MD5 check sum: 70aee299febfc78ac0df086b2000f8f7
     Pseudo is Ultrasoft + core correction, Zval = 16.0
     Generated by new atomic code, or converted to UPF format
     Using radial grid of  861 points,  6 beta functions with:
                l(1) =   0
                l(2) =   0
                l(3) =   1
                l(4) =   1
                l(5) =   2
                l(6) =   2
     Q(r) pseudized with  8 coefficients,  rinner =    1.000   1.000   1.000
                                                       1.000   1.000

     atomic species   valence    mass     pseudopotential
        Bi            15.00   208.98038     Bi( 1.00)
        O              6.00    15.99940     O ( 1.00)
        Fe1           16.00    55.84500     Fe( 1.00)
        Fe2           16.00    55.84500     Fe( 1.00)

     Starting magnetic structure
     atomic species   magnetization
        Bi           0.000
        O            0.000
        Fe1          0.800
        Fe2         -0.800

     Simplified LDA+U calculation (l_max = 2) with parameters (eV):
     atomic species    L          U    alpha       J0     beta
        Fe1            2     2.4300   0.0000   0.0000   0.0000
        Fe2            2     2.4300   0.0000   0.0000   0.0000

      3 Sym. Ops. (no inversion) found

                                    s                        frac. trans.

      isym =  1     identity

 cryst.   s( 1) = (     1          0          0      )
                  (     0          1          0      )
                  (     0          0          1      )

 cart.    s( 1) = (  1.0000000  0.0000000  0.0000000 )
                  (  0.0000000  1.0000000  0.0000000 )
                  (  0.0000000  0.0000000  1.0000000 )

      isym =  2     120 deg rotation - cryst. axis [0,0,1]

[...]

      isym =  3     120 deg rotation - cryst. axis [0,0,-1]

 cryst.   s( 3) = (    -1         -1          0      )
                  (     1          0          0      )
                  (     0          0          1      )

 cart.    s( 3) = ( -0.5000000  0.8660254  0.0000000 )
                  ( -0.8660254 -0.5000000  0.0000000 )
                  (  0.0000000  0.0000000  1.0000000 )

   Cartesian axes

     site n.     atom                  positions (alat units)
         1           Fe1 tau(   1) = (   0.0000000   0.0000000   0.6985776  )
         2           Fe2 tau(   2) = (   0.5000005   0.2886748   0.2825564  )
         3           Fe1 tau(   3) = (   0.5000005   0.2886748   1.5306360  )
         4           Fe2 tau(   4) = (  -0.0000005   0.5773505   1.1145958  )
         5           Fe1 tau(   5) = (  -0.0000005   0.5773505   2.3626695  )
         6           Fe2 tau(   6) = (   0.0000000   0.0000000   1.9466681  )
         7           Bi  tau(   7) = (  -0.0000005   0.5773505   0.4200321  )
         8           Bi  tau(   8) = (   0.0000000   0.0000000   0.0040159  )
         9           Bi  tau(   9) = (   0.0000000   0.0000000   1.2520984  )
        10           Bi  tau(  10) = (   0.5000005   0.2886748   0.8360602  )
        11           Bi  tau(  11) = (   0.5000005   0.2886748   2.0841436  )
        12           Bi  tau(  12) = (  -0.0000005   0.5773505   1.6681117  )
        13           O   tau(  13) = (   0.6984987   0.0853327   0.5387765  )
        14           O   tau(  14) = (   0.5768504   0.5622513   0.5387765  )
        15           O   tau(  15) = (   0.2246509   0.2184414   0.5387765  )
        16           O   tau(  16) = (   0.2753499   0.5071158   0.1227567  )
        17           O   tau(  17) = (  -0.1984997   0.3740075   0.1227567  )
        18           O   tau(  18) = (  -0.0768501   0.8509274   0.1227567  )
        19           O   tau(  19) = (   0.1984987   0.3740076   1.3708274  )
        20           O   tau(  20) = (   0.0768506   0.8509265   1.3708274  )
        21           O   tau(  21) = (  -0.2753492   0.5071167   1.3708274  )
        22           O   tau(  22) = (  -0.2246502   0.7957908   0.9547978  )
        23           O   tau(  23) = (   0.3015002   0.6626827   0.9547978  )
        24           O   tau(  24) = (  -0.0768500   0.2735772   0.9547978  )
        25           O   tau(  25) = (  -0.3015049   0.6626846   2.2028821  )
        26           O   tau(  26) = (   0.0768507   0.2735721   2.2028821  )
        27           O   tau(  27) = (   0.2246542   0.7957940   2.2028821  )
        28           O   tau(  28) = (   0.7753507   0.2184423   1.7868570  )
        29           O   tau(  29) = (   0.3015012   0.0853309   1.7868570  )
        30           O   tau(  30) = (   0.4231481   0.5622522   1.7868570  )

   Crystallographic axes

     site n.     atom                  positions (cryst. coord.)
         1           Fe1 tau(   1) = (  0.0000000  0.0000000  0.2798615  )
         2           Fe2 tau(   2) = (  0.6666670  0.3333330  0.1131967  )
         3           Fe1 tau(   3) = (  0.6666670  0.3333330  0.6131975  )
         4           Fe2 tau(   4) = (  0.3333330  0.6666670  0.4465251  )
         5           Fe1 tau(   5) = (  0.3333330  0.6666670  0.9465236  )
         6           Fe2 tau(   6) = (  0.0000000  0.0000000  0.7798667  )
         7           Bi  tau(   7) = (  0.3333330  0.6666670  0.1682716  )
         8           Bi  tau(   8) = (  0.0000000  0.0000000  0.0016088  )
         9           Bi  tau(   9) = (  0.0000000  0.0000000  0.5016109  )
        10           Bi  tau(  10) = (  0.6666670  0.3333330  0.3349393  )
        11           Bi  tau(  11) = (  0.6666670  0.3333330  0.8349416  )
        12           Bi  tau(  12) = (  0.3333330  0.6666670  0.6682725  )
        13           O   tau(  13) = (  0.7477656  0.0985337  0.2158426  )
        14           O   tau(  14) = (  0.9014663  0.6492319  0.2158426  )
        15           O   tau(  15) = (  0.3507681  0.2522344  0.2158426  )
        16           O   tau(  16) = (  0.5681333  0.5855669  0.0491783  )
        17           O   tau(  17) = (  0.0174336  0.4318667  0.0491783  )
        18           O   tau(  18) = (  0.4144331  0.9825664  0.0491783  )
        19           O   tau(  19) = (  0.4144321  0.4318668  0.5491756  )
        20           O   tau(  20) = (  0.5681332  0.9825653  0.5491756  )
        21           O   tau(  21) = (  0.0174347  0.5855679  0.5491756  )
        22           O   tau(  22) = (  0.2347999  0.9189001  0.3825074  )
        23           O   tau(  23) = (  0.6841002  0.7652001  0.3825074  )
        24           O   tau(  24) = (  0.0810999  0.3158998  0.3825074  )
        25           O   tau(  25) = (  0.0810962  0.7652023  0.8825102  )
        26           O   tau(  26) = (  0.2347977  0.3158939  0.8825102  )
        27           O   tau(  27) = (  0.6841061  0.9189038  0.8825102  )
        28           O   tau(  28) = (  0.9014684  0.2522354  0.7158438  )
        29           O   tau(  29) = (  0.3507670  0.0985316  0.7158438  )
        30           O   tau(  30) = (  0.7477646  0.6492330  0.7158438  )

     number of k points=    44  gaussian smearing, width (Ry)=  0.0100
                       cart. coord. in units 2pi/alat
        k(    1) = (   0.0000000   0.0000000   0.0000000), wk =   0.0046296
        k(    2) = (   0.0000000   0.0000000   0.0667694), wk =   0.0092593
        k(    3) = (   0.0000000   0.0000000   0.1335387), wk =   0.0092593
        k(    4) = (   0.0000000   0.0000000  -0.2003081), wk =   0.0046296
        k(    5) = (   0.0000000   0.1924501   0.0000000), wk =   0.0277778
[...]
   spin  1
    eigenvalues:
  0.988  0.988  0.995  0.996  0.996
    eigenvectors:
  0.000  0.000  1.000  0.000  0.000
  0.188  0.387  0.000  0.136  0.290
  0.387  0.188  0.000  0.290  0.136
  0.400  0.025  0.000  0.538  0.036
  0.025  0.400  0.000  0.036  0.538
    occupations:
  0.995  0.000  0.000  0.000  0.000
  0.000  0.991  0.000  0.003 -0.003
  0.000  0.000  0.991 -0.003 -0.003
  0.000  0.003 -0.003  0.993 -0.000
  0.000 -0.003 -0.003 -0.000  0.993
   spin  2
    eigenvalues:
  0.153  0.153  0.157  0.334  0.334
    eigenvectors:
  0.000  0.000  1.000  0.000  0.000
  0.085  0.312  0.000  0.177  0.425
  0.312  0.085  0.000  0.425  0.177
  0.549  0.054  0.000  0.380  0.017
  0.054  0.549  0.000  0.017  0.380
    occupations:
  0.157  0.000  0.000  0.000  0.000
  0.000  0.262  0.000 -0.062  0.063
  0.000  0.000  0.262  0.063  0.062
  0.000 -0.062  0.063  0.225 -0.000
  0.000  0.063  0.062 -0.000  0.225
atomic mag. moment =     3.830998
atom    6   Tr[ns(na)] (up, down, total) =   1.13194  4.96285  6.09479
   spin  1
    eigenvalues:
  0.153  0.153  0.157  0.334  0.334
    eigenvectors:
  0.000  0.000  1.000  0.000  0.000
  0.370  0.027  0.000  0.600  0.003
  0.027  0.370  0.000  0.003  0.600
  0.452  0.151  0.000  0.225  0.173
  0.151  0.452  0.000  0.173  0.225
    occupations:
  0.157  0.000  0.000  0.000  0.000
  0.000  0.262  0.000  0.062  0.063
  0.000  0.000  0.262  0.063 -0.062
  0.000  0.062  0.063  0.225 -0.000
  0.000  0.063 -0.062 -0.000  0.225
   spin  2
    eigenvalues:
  0.988  0.988  0.995  0.996  0.996
    eigenvectors:
  0.000  0.000  1.000  0.000  0.000
  0.574  0.001  0.000  0.404  0.022
  0.001  0.574  0.000  0.022  0.404
  0.258  0.167  0.000  0.448  0.126
  0.167  0.258  0.000  0.126  0.448
    occupations:
  0.995  0.000  0.000  0.000  0.000
  0.000  0.991  0.000 -0.003 -0.003
  0.000  0.000  0.991 -0.003  0.003
  0.000 -0.003 -0.003  0.993 -0.000
  0.000 -0.003  0.003 -0.000  0.993
atomic mag. moment =    -3.830905
N of occupied +U levels =   36.567484
 --- exit write_ns ---
 --- in v_hubbard ---
Hubbard energy    0.4682

     Magnetic moment per site:
     atom:    1    charge:   12.9980    magn:    3.7012    constr:    0.0000
     atom:    2    charge:   12.9986    magn:   -3.7012    constr:    0.0000
     atom:    3    charge:   12.9986    magn:    3.7012    constr:    0.0000
     atom:    4    charge:   12.9988    magn:   -3.7013    constr:    0.0000
     atom:    5    charge:   12.9989    magn:    3.7012    constr:    0.0000
     atom:    6    charge:   12.9984    magn:   -3.7009    constr:    0.0000
     atom:    7    charge:   10.5985    magn:   -0.0005    constr:    0.0000
     atom:    8    charge:   10.5986    magn:    0.0005    constr:    0.0000
     atom:    9    charge:   10.5986    magn:   -0.0005    constr:    0.0000
     atom:   10    charge:   10.5988    magn:    0.0005    constr:    0.0000
     atom:   11    charge:   10.5988    magn:   -0.0005    constr:    0.0000
     atom:   12    charge:   10.5984    magn:    0.0005    constr:    0.0000
     atom:   13    charge:    5.3694    magn:    0.0609    constr:    0.0000
     atom:   14    charge:    5.3694    magn:    0.0609    constr:    0.0000
     atom:   15    charge:    5.3694    magn:    0.0609    constr:    0.0000
     atom:   16    charge:    5.3694    magn:   -0.0609    constr:    0.0000
     atom:   17    charge:    5.3694    magn:   -0.0609    constr:    0.0000
     atom:   18    charge:    5.3694    magn:   -0.0609    constr:    0.0000
     atom:   19    charge:    5.3695    magn:    0.0609    constr:    0.0000
     atom:   20    charge:    5.3695    magn:    0.0609    constr:    0.0000
     atom:   21    charge:    5.3695    magn:    0.0609    constr:    0.0000
     atom:   22    charge:    5.3694    magn:   -0.0609    constr:    0.0000
     atom:   23    charge:    5.3694    magn:   -0.0609    constr:    0.0000
     atom:   24    charge:    5.3694    magn:   -0.0609    constr:    0.0000
     atom:   25    charge:    5.3692    magn:    0.0609    constr:    0.0000
     atom:   26    charge:    5.3692    magn:    0.0609    constr:    0.0000
     atom:   27    charge:    5.3692    magn:    0.0609    constr:    0.0000
     atom:   28    charge:    5.3693    magn:   -0.0609    constr:    0.0000
     atom:   29    charge:    5.3693    magn:   -0.0609    constr:    0.0000
     atom:   30    charge:    5.3693    magn:   -0.0609    constr:    0.0000

     End of self-consistent calculation

 ------ SPIN UP ------------

          k = 0.0000 0.0000 0.0000 ( 11177 PWs)   bands (ev):

   -79.4750 -79.4749 -79.4742 -74.6907 -74.6904 -74.6897 -45.8708 -45.8707
   -45.8700 -45.8120 -45.8120 -45.8119 -45.8119 -45.8112 -45.8112 -41.2498
   -41.2495 -41.2488 -41.2009 -41.2009 -41.2006 -41.2006 -41.1999 -41.1999
   -12.0359 -12.0359 -12.0007 -12.0007 -12.0003 -12.0003 -11.9469 -11.9465
   -11.9465 -11.9462 -11.9462 -11.9437 -11.9437 -11.9340 -11.9338 -11.9041
   -11.9041 -11.9039 -11.9039 -11.9020 -11.9019 -11.9001 -11.9001 -11.8884
   -11.8784 -11.8784 -11.8783 -11.8783 -11.8562 -11.8562  -8.2662  -7.9015
    -7.9014  -7.0598  -7.0596  -6.5736  -6.4974  -6.4974  -6.4730  -6.4730
    -6.4422  -6.4421  -6.2651  -6.2650  -6.2325  -6.2324  -6.1708  -6.1708
    -0.0352   0.1707   0.1708   0.9412   0.9413   1.6478   3.8947   3.8947
     4.1527   4.1528   4.1628   4.1686   4.1687   4.4059   4.4059   4.4358
     4.4358   4.4757   4.4759   4.5663   4.5664   4.6175   5.0436   5.0438
     5.4242   5.4242   5.4501   5.5973   5.5974   5.6319   5.6320   6.0639
     6.0641   6.3687   6.3687   6.4092   6.4092   6.5989   6.8180   6.8180
     7.0756   7.0759   7.3685   7.3686   7.7262   7.7264   7.7426   7.7426
     7.7976   7.7976   7.8774   7.8775   7.9407   7.9408   8.5478   8.5478
     8.5535   8.5725   8.5725   8.6479   8.6480   8.9702   8.9702   9.1435
     9.3406   9.3409   9.4041   9.4041   9.4369   9.6825   9.6825   9.7342
     9.7346   9.8689   9.8689  11.7151  11.7155  11.7486  11.7486  11.7764
    11.7818  11.7818  11.8576  11.8576  12.9413  12.9413  13.0433  13.0433
    13.2249  13.2249  13.9835  13.9838  14.1286  14.1291  15.0463  15.0463
    15.1437  15.1438  15.1659  15.1659  15.5683  15.7162  15.7162  15.7398
    15.7398  15.8608  16.1324  16.1324  17.0794  18.5612  18.5614  18.7229
    19.4402  19.4402  19.9223  19.9225  20.5112  20.5112  20.5346  20.5347
    20.7904  20.7904  21.6291  21.8693  21.8693  21.8696  21.8697  22.0746
    22.0747  22.3346  22.3350  22.3357  23.1657  23.1657  23.2652  23.2652
    23.7658  23.7658  24.0124  24.0126  24.7727  24.8139  24.8139  24.8198
    24.8198  24.8306  24.8307  24.8856  24.8859  25.2664  25.4293  25.4294
    25.4314  25.4314  25.5015  25.5016  25.9157  25.9157  26.6989  26.6989
    26.7937  26.8156  26.8157  26.9914  26.9914  27.4254  28.0348  28.0348
    28.9074  28.9392  28.9392  29.2839  29.5774  29.6344  29.6344  29.9012
    29.9013  30.0860  30.0861  30.0890  30.0891  30.2011  30.2011  30.7228
    30.7228  31.2724  31.2725  31.3111  31.3112  31.3527  31.3528  31.4305
    32.5133  32.5134  32.6016  32.6016  32.6155  32.6155  32.6883  32.7140
    32.7141  32.8925  32.8926  33.3674  33.3674  33.4328  33.4328  33.7414
    33.8832  33.8833  33.9891  33.9891  34.0189  34.0190  34.6119  34.6121
    34.6431  35.3351  35.3354  35.3615  35.3620  35.5209

     occupation numbers
     1.0000   1.0000   1.0000   1.0000   1.0000   1.0000   1.0000   1.0000
     1.0000   1.0000   1.0000   1.0000   1.0000   1.0000   1.0000   1.0000
     1.0000   1.0000   1.0000   1.0000   1.0000   1.0000   1.0000   1.0000
     1.0000   1.0000   1.0000   1.0000   1.0000   1.0000   1.0000   1.0000
     1.0000   1.0000   1.0000   1.0000   1.0000   1.0000   1.0000   1.0000
     1.0000   1.0000   1.0000   1.0000   1.0000   1.0000   1.0000   1.0000
     1.0000   1.0000   1.0000   1.0000   1.0000   1.0000   1.0000   1.0000
     1.0000   1.0000   1.0000   1.0000   1.0000   1.0000   1.0000   1.0000
     1.0000   1.0000   1.0000   1.0000   1.0000   1.0000   1.0000   1.0000
     1.0000   1.0000   1.0000   1.0000   1.0000   1.0000   1.0000   1.0000
     1.0000   1.0000   1.0000   1.0000   1.0000   1.0000   1.0000   1.0000
     1.0000   1.0000   1.0000   1.0000   1.0000   1.0000   1.0000   1.0000
     1.0000   1.0000   1.0000   1.0000   1.0000   1.0000   1.0000   1.0000
     1.0000   1.0000   1.0000   1.0000   1.0000   1.0000   1.0000   1.0000
     1.0000   1.0000   1.0000   1.0000   1.0000   1.0000   1.0000   1.0000
     1.0000   1.0000   1.0000   1.0000   1.0000   1.0000   1.0000   1.0000
     1.0000   1.0000   1.0000   1.0000   1.0000   1.0000   1.0000   1.0000
     1.0000   1.0000   1.0000   1.0000   1.0000   1.0000   1.0000   1.0000
     1.0000   1.0000   1.0000   0.0000   0.0000   0.0000   0.0000   0.0000
     0.0000   0.0000   0.0000   0.0000   0.0000   0.0000   0.0000   0.0000
     0.0000   0.0000   0.0000   0.0000   0.0000   0.0000   0.0000   0.0000
     0.0000   0.0000   0.0000   0.0000   0.0000   0.0000   0.0000   0.0000
     0.0000   0.0000   0.0000   0.0000   0.0000   0.0000   0.0000   0.0000
     0.0000   0.0000   0.0000   0.0000   0.0000   0.0000   0.0000   0.0000
     0.0000   0.0000   0.0000   0.0000   0.0000   0.0000   0.0000   0.0000
     0.0000   0.0000   0.0000   0.0000   0.0000   0.0000   0.0000   0.0000
     0.0000   0.0000   0.0000   0.0000   0.0000   0.0000   0.0000   0.0000
     0.0000   0.0000   0.0000   0.0000   0.0000   0.0000   0.0000   0.0000
     0.0000   0.0000   0.0000   0.0000   0.0000   0.0000   0.0000   0.0000
     0.0000   0.0000   0.0000   0.0000   0.0000   0.0000   0.0000   0.0000
     0.0000   0.0000   0.0000   0.0000   0.0000   0.0000   0.0000   0.0000
     0.0000   0.0000   0.0000   0.0000   0.0000   0.0000   0.0000   0.0000
     0.0000   0.0000   0.0000   0.0000   0.0000   0.0000   0.0000   0.0000
     0.0000   0.0000   0.0000   0.0000   0.0000   0.0000   0.0000   0.0000
     0.0000   0.0000   0.0000   0.0000   0.0000   0.0000   0.0000   0.0000
     0.0000   0.0000   0.0000   0.0000   0.0000   0.0000   0.0000   0.0000
     0.0000   0.0000   0.0000   0.0000   0.0000   0.0000

[...]

          k =-0.1667 0.0962 0.0668 ( 11189 PWs)   bands (ev):

[...]

 ------ SPIN DOWN ----------

[...]

          k =-0.1667 0.4811-0.1335 ( 11169 PWs)   bands (ev):

[...]

          k = 0.3333-0.5774-0.1335 ( 11151 PWs)   bands (ev):

   -79.4756 -79.4752 -79.4745 -74.6902 -74.6902 -74.6894 -45.8713 -45.8710
   -45.8703 -45.8126 -45.8125 -45.8122 -45.8122 -45.8116 -45.8115 -41.2494
   -41.2493 -41.2486 -41.2005 -41.2005 -41.2004 -41.2004 -41.1997 -41.1997
   -11.9999 -11.9997 -11.9997 -11.9974 -11.9974 -11.9974 -11.9488 -11.9488
   -11.9487 -11.9429 -11.9428 -11.9428 -11.9151 -11.9150 -11.9149 -11.9124
   -11.9124 -11.9124 -11.9021 -11.9020 -11.9020 -11.9002 -11.9001 -11.9000
   -11.8823 -11.8823 -11.8822 -11.8801 -11.8800 -11.8800  -7.4028  -7.4022
    -7.4021  -7.3245  -7.3243  -7.3240  -6.6717  -6.6715  -6.6713  -6.5523
    -6.5522  -6.5520  -6.3144  -6.3141  -6.3140  -6.2320  -6.2319  -6.2316
     0.4005   0.4006   0.4007   0.4280   0.4280   0.4281   3.9009   3.9010
     3.9014   4.3568   4.3568   4.3571   4.4457   4.4458   4.4459   4.8205
     4.8207   4.8207   4.9296   4.9296   4.9301   5.0524   5.0527   5.0528
     5.6808   5.6808   5.6810   5.9291   5.9293   5.9294   6.2631   6.2631
     6.2633   6.5159   6.5159   6.5160   6.8219   6.8220   6.8220   7.1133
     7.1134   7.1134   7.2237   7.2239   7.2239   7.6052   7.6053   7.6055
     7.8240   7.8241   7.8241   8.0025   8.0026   8.0027   8.3360   8.3361
     8.3362   8.4828   8.4828   8.4829   8.6485   8.6486   8.6487   9.1593
     9.1596   9.1596   9.2571   9.2574   9.2575   9.4514   9.4516   9.4518
     9.8020   9.8024   9.8024  11.8056  11.8058  11.8058  11.9118  11.9119
    11.9120  11.9791  11.9793  11.9796  12.6319  12.6319  12.6322  12.9658
    12.9659  12.9661  13.6223  13.6224  13.6225  13.8226  13.8227  13.8228
    14.8795  14.8796  14.8797  14.9909  14.9911  14.9912  15.4817  15.4819
    15.4821  15.6956  15.6956  15.6957  19.4210  19.4216  19.4218  19.9876
    19.9878  19.9879  20.7190  20.7191  20.7191  20.9543  20.9545  20.9545
    21.3087  21.3088  21.3088  21.7218  21.7220  21.7222  22.1709  22.1709
    22.1710  22.4925  22.4925  22.4926  23.0521  23.0523  23.0524  23.1915
    23.1916  23.1917  23.8634  23.8634  23.8636  23.9867  23.9868  23.9868
    24.1824  24.1825  24.1825  24.3949  24.3949  24.3950  25.0283  25.0285
    25.0285  25.2484  25.2484  25.2485  26.2273  26.2274  26.2275  26.7132
    26.7133  26.7134  27.7062  27.7063  27.7063  28.3341  28.3341  28.3342
    28.8665  28.8666  28.8666  29.3090  29.3091  29.3091  29.8178  29.8178
    29.8179  30.0050  30.0050  30.0051  30.7691  30.7692  30.7693  31.0110
    31.0111  31.0111  31.6081  31.6082  31.6083  31.9757  31.9758  31.9758
    32.5631  32.5632  32.5632  33.1500  33.1501  33.1501  33.3305  33.3305
    33.3306  33.5020  33.5020  33.5021  33.8678  33.8678  33.8679  34.1210
    34.1211  34.1213  34.5423  34.5425  34.5425  34.8823  34.8823  34.8825
    35.4536  35.4538  35.4541  35.9545  35.9553  35.9555

     occupation numbers
     1.0000   1.0000   1.0000   1.0000   1.0000   1.0000   1.0000   1.0000
     1.0000   1.0000   1.0000   1.0000   1.0000   1.0000   1.0000   1.0000
     1.0000   1.0000   1.0000   1.0000   1.0000   1.0000   1.0000   1.0000
     1.0000   1.0000   1.0000   1.0000   1.0000   1.0000   1.0000   1.0000
     1.0000   1.0000   1.0000   1.0000   1.0000   1.0000   1.0000   1.0000
     1.0000   1.0000   1.0000   1.0000   1.0000   1.0000   1.0000   1.0000
     1.0000   1.0000   1.0000   1.0000   1.0000   1.0000   1.0000   1.0000
     1.0000   1.0000   1.0000   1.0000   1.0000   1.0000   1.0000   1.0000
     1.0000   1.0000   1.0000   1.0000   1.0000   1.0000   1.0000   1.0000
     1.0000   1.0000   1.0000   1.0000   1.0000   1.0000   1.0000   1.0000
     1.0000   1.0000   1.0000   1.0000   1.0000   1.0000   1.0000   1.0000
     1.0000   1.0000   1.0000   1.0000   1.0000   1.0000   1.0000   1.0000
     1.0000   1.0000   1.0000   1.0000   1.0000   1.0000   1.0000   1.0000
     1.0000   1.0000   1.0000   1.0000   1.0000   1.0000   1.0000   1.0000
     1.0000   1.0000   1.0000   1.0000   1.0000   1.0000   1.0000   1.0000
     1.0000   1.0000   1.0000   1.0000   1.0000   1.0000   1.0000   1.0000
     1.0000   1.0000   1.0000   1.0000   1.0000   1.0000   1.0000   1.0000
     1.0000   1.0000   1.0000   1.0000   1.0000   1.0000   1.0000   1.0000
     1.0000   1.0000   1.0000   0.0000   0.0000   0.0000   0.0000   0.0000
     0.0000   0.0000   0.0000   0.0000   0.0000   0.0000   0.0000   0.0000
     0.0000   0.0000   0.0000   0.0000   0.0000   0.0000   0.0000   0.0000
     0.0000   0.0000   0.0000   0.0000   0.0000   0.0000   0.0000   0.0000
     0.0000   0.0000   0.0000   0.0000   0.0000   0.0000   0.0000   0.0000
     0.0000   0.0000   0.0000   0.0000   0.0000   0.0000   0.0000   0.0000
     0.0000   0.0000   0.0000   0.0000   0.0000   0.0000   0.0000   0.0000
     0.0000   0.0000   0.0000   0.0000   0.0000   0.0000   0.0000   0.0000
     0.0000   0.0000   0.0000   0.0000   0.0000   0.0000   0.0000   0.0000
     0.0000   0.0000   0.0000   0.0000   0.0000   0.0000   0.0000   0.0000
     0.0000   0.0000   0.0000   0.0000   0.0000   0.0000   0.0000   0.0000
     0.0000   0.0000   0.0000   0.0000   0.0000   0.0000   0.0000   0.0000
     0.0000   0.0000   0.0000   0.0000   0.0000   0.0000   0.0000   0.0000
     0.0000   0.0000   0.0000   0.0000   0.0000   0.0000   0.0000   0.0000
     0.0000   0.0000   0.0000   0.0000   0.0000   0.0000   0.0000   0.0000
     0.0000   0.0000   0.0000   0.0000   0.0000   0.0000   0.0000   0.0000
     0.0000   0.0000   0.0000   0.0000   0.0000   0.0000   0.0000   0.0000
     0.0000   0.0000   0.0000   0.0000   0.0000   0.0000   0.0000   0.0000
     0.0000   0.0000   0.0000   0.0000   0.0000   0.0000

     the Fermi energy is    10.8904 ev

!    total energy              =   -3013.09280652 Ry
     Harris-Foulkes estimate   =   -3013.09280694 Ry
     estimated scf accuracy    <       0.00000063 Ry

     The total energy is the sum of the following terms:

     one-electron contribution =   -1374.86611234 Ry
     hartree contribution      =     856.48276224 Ry
     xc contribution           =    -494.27665368 Ry
     ewald contribution        =   -2000.90100253 Ry
     Hubbard energy            =       0.46819980 Ry
     smearing contrib. (-TS)   =      -0.00000000 Ry

     total magnetization       =    -0.00 Bohr mag/cell
     absolute magnetization    =    25.71 Bohr mag/cell

     convergence has been achieved in  13 iterations

     Writing output data file BiFeO3.save/

     General routines

     Hubbard U routines

   This run was terminated on:   6:20:23  10Apr2019

   JOB DONE.